language Essence 1.3

letting costTC be
        function((1, 1) --> 9, (1, 2) --> 8, (1, 3) --> 1, (1, 4) --> 16, (1, 5) --> 14, (1, 6) --> 15, (2, 1) --> 13,
                 (2, 2) --> 7, (2, 3) --> 4, (2, 4) --> 2, (2, 5) --> 6, (2, 6) --> 4, (3, 1) --> 13, (3, 2) --> 12,
                 (3, 3) --> 12, (3, 4) --> 7, (3, 5) --> 8, (3, 6) --> 10, (4, 1) --> 3, (4, 2) --> 16, (4, 3) --> 2,
                 (4, 4) --> 12, (4, 5) --> 4, (4, 6) --> 11, (5, 1) --> 6, (5, 2) --> 6, (5, 3) --> 18, (5, 4) --> 15,
                 (5, 5) --> 7, (5, 6) --> 16, (6, 1) --> 18, (6, 2) --> 10, (6, 3) --> 5, (6, 4) --> 1, (6, 5) --> 5,
                 (6, 6) --> 9, (7, 1) --> 10, (7, 2) --> 10, (7, 3) --> 16, (7, 4) --> 4, (7, 5) --> 7, (7, 6) --> 2,
                 (8, 1) --> 9, (8, 2) --> 5, (8, 3) --> 5, (8, 4) --> 8, (8, 5) --> 5, (8, 6) --> 2, (9, 1) --> 13,
                 (9, 2) --> 16, (9, 3) --> 5, (9, 4) --> 16, (9, 5) --> 4, (9, 6) --> 5, (10, 1) --> 1, (10, 2) --> 12,
                 (10, 3) --> 8, (10, 4) --> 9, (10, 5) --> 15, (10, 6) --> 6, (11, 1) --> 14, (11, 2) --> 13,
                 (11, 3) --> 6, (11, 4) --> 3, (11, 5) --> 12, (11, 6) --> 17, (12, 1) --> 9, (12, 2) --> 11,
                 (12, 3) --> 8, (12, 4) --> 10, (12, 5) --> 1, (12, 6) --> 9, (13, 1) --> 11, (13, 2) --> 11,
                 (13, 3) --> 7, (13, 4) --> 1, (13, 5) --> 2, (13, 6) --> 4, (14, 1) --> 5, (14, 2) --> 15,
                 (14, 3) --> 10, (14, 4) --> 13, (14, 5) --> 1, (14, 6) --> 16, (15, 1) --> 2, (15, 2) --> 2,
                 (15, 3) --> 15, (15, 4) --> 12, (15, 5) --> 4, (15, 6) --> 2, (16, 1) --> 13, (16, 2) --> 16,
                 (16, 3) --> 4, (16, 4) --> 15, (16, 5) --> 4, (16, 6) --> 18, (17, 1) --> 12, (17, 2) --> 7,
                 (17, 3) --> 12, (17, 4) --> 3, (17, 5) --> 3, (17, 6) --> 16, (18, 1) --> 2, (18, 2) --> 10,
                 (18, 3) --> 18, (18, 4) --> 4, (18, 5) --> 1, (18, 6) --> 16, (19, 1) --> 15, (19, 2) --> 15,
                 (19, 3) --> 4, (19, 4) --> 16, (19, 5) --> 18, (19, 6) --> 17, (20, 1) --> 9, (20, 2) --> 18,
                 (20, 3) --> 14, (20, 4) --> 11, (20, 5) --> 2, (20, 6) --> 13, (21, 1) --> 9, (21, 2) --> 14,
                 (21, 3) --> 17, (21, 4) --> 14, (21, 5) --> 18, (21, 6) --> 11, (22, 1) --> 13, (22, 2) --> 15,
                 (22, 3) --> 3, (22, 4) --> 2, (22, 5) --> 3, (22, 6) --> 8, (23, 1) --> 8, (23, 2) --> 6,
                 (23, 3) --> 4, (23, 4) --> 9, (23, 5) --> 10, (23, 6) --> 7, (24, 1) --> 3, (24, 2) --> 8,
                 (24, 3) --> 1, (24, 4) --> 6, (24, 5) --> 2, (24, 6) --> 11, (25, 1) --> 3, (25, 2) --> 3,
                 (25, 3) --> 14, (25, 4) --> 3, (25, 5) --> 17, (25, 6) --> 10, (26, 1) --> 15, (26, 2) --> 1,
                 (26, 3) --> 3, (26, 4) --> 6, (26, 5) --> 8, (26, 6) --> 16, (27, 1) --> 18, (27, 2) --> 9,
                 (27, 3) --> 18, (27, 4) --> 9, (27, 5) --> 17, (27, 6) --> 9, (28, 1) --> 5, (28, 2) --> 12,
                 (28, 3) --> 9, (28, 4) --> 2, (28, 5) --> 17, (28, 6) --> 4, (29, 1) --> 11, (29, 2) --> 12,
                 (29, 3) --> 1, (29, 4) --> 7, (29, 5) --> 11, (29, 6) --> 13, (30, 1) --> 7, (30, 2) --> 6,
                 (30, 3) --> 4, (30, 4) --> 10, (30, 5) --> 16, (30, 6) --> 18, (31, 1) --> 7, (31, 2) --> 11,
                 (31, 3) --> 3, (31, 4) --> 10, (31, 5) --> 7, (31, 6) --> 17, (32, 1) --> 2, (32, 2) --> 16,
                 (32, 3) --> 12, (32, 4) --> 5, (32, 5) --> 6, (32, 6) --> 17, (33, 1) --> 5, (33, 2) --> 17,
                 (33, 3) --> 9, (33, 4) --> 18, (33, 5) --> 2, (33, 6) --> 6, (34, 1) --> 15, (34, 2) --> 10,
                 (34, 3) --> 7, (34, 4) --> 18, (34, 5) --> 18, (34, 6) --> 1, (35, 1) --> 2, (35, 2) --> 17,
                 (35, 3) --> 4, (35, 4) --> 11, (35, 5) --> 17, (35, 6) --> 16, (36, 1) --> 12, (36, 2) --> 3,
                 (36, 3) --> 7, (36, 4) --> 9, (36, 5) --> 3, (36, 6) --> 13, (37, 1) --> 13, (37, 2) --> 17,
                 (37, 3) --> 1, (37, 4) --> 18, (37, 5) --> 8, (37, 6) --> 2, (38, 1) --> 14, (38, 2) --> 5,
                 (38, 3) --> 12, (38, 4) --> 15, (38, 5) --> 6, (38, 6) --> 8)
letting costWT be
        function((1, 1) --> 2, (1, 2) --> 1, (1, 3) --> 2, (1, 4) --> 1, (1, 5) --> 2, (1, 6) --> 1, (1, 7) --> 1,
                 (1, 8) --> 2, (1, 9) --> 1, (1, 10) --> 1, (1, 11) --> 1, (1, 12) --> 2, (1, 13) --> 2, (1, 14) --> 1,
                 (1, 15) --> 1, (1, 16) --> 2, (1, 17) --> 1, (1, 18) --> 1, (1, 19) --> 2, (1, 20) --> 2,
                 (1, 21) --> 1, (1, 22) --> 1, (1, 23) --> 1, (1, 24) --> 1, (1, 25) --> 2, (1, 26) --> 2,
                 (1, 27) --> 2, (1, 28) --> 1, (1, 29) --> 1, (1, 30) --> 1, (1, 31) --> 1, (1, 32) --> 1,
                 (1, 33) --> 2, (1, 34) --> 2, (1, 35) --> 2, (1, 36) --> 2, (1, 37) --> 1, (1, 38) --> 1, (2, 1) --> 1,
                 (2, 2) --> 1, (2, 3) --> 1, (2, 4) --> 1, (2, 5) --> 2, (2, 6) --> 1, (2, 7) --> 2, (2, 8) --> 1,
                 (2, 9) --> 2, (2, 10) --> 1, (2, 11) --> 2, (2, 12) --> 1, (2, 13) --> 1, (2, 14) --> 1, (2, 15) --> 2,
                 (2, 16) --> 1, (2, 17) --> 1, (2, 18) --> 2, (2, 19) --> 2, (2, 20) --> 1, (2, 21) --> 2,
                 (2, 22) --> 1, (2, 23) --> 2, (2, 24) --> 2, (2, 25) --> 1, (2, 26) --> 1, (2, 27) --> 2,
                 (2, 28) --> 1, (2, 29) --> 2, (2, 30) --> 1, (2, 31) --> 2, (2, 32) --> 2, (2, 33) --> 2,
                 (2, 34) --> 2, (2, 35) --> 1, (2, 36) --> 2, (2, 37) --> 2, (2, 38) --> 2, (3, 1) --> 2, (3, 2) --> 2,
                 (3, 3) --> 1, (3, 4) --> 1, (3, 5) --> 2, (3, 6) --> 2, (3, 7) --> 2, (3, 8) --> 1, (3, 9) --> 2,
                 (3, 10) --> 2, (3, 11) --> 1, (3, 12) --> 1, (3, 13) --> 1, (3, 14) --> 2, (3, 15) --> 2,
                 (3, 16) --> 2, (3, 17) --> 1, (3, 18) --> 2, (3, 19) --> 1, (3, 20) --> 1, (3, 21) --> 2,
                 (3, 22) --> 1, (3, 23) --> 2, (3, 24) --> 1, (3, 25) --> 2, (3, 26) --> 1, (3, 27) --> 2,
                 (3, 28) --> 2, (3, 29) --> 2, (3, 30) --> 1, (3, 31) --> 2, (3, 32) --> 2, (3, 33) --> 1,
                 (3, 34) --> 2, (3, 35) --> 1, (3, 36) --> 2, (3, 37) --> 1, (3, 38) --> 2, (4, 1) --> 1, (4, 2) --> 1,
                 (4, 3) --> 1, (4, 4) --> 1, (4, 5) --> 2, (4, 6) --> 2, (4, 7) --> 1, (4, 8) --> 1, (4, 9) --> 2,
                 (4, 10) --> 1, (4, 11) --> 2, (4, 12) --> 1, (4, 13) --> 1, (4, 14) --> 2, (4, 15) --> 1,
                 (4, 16) --> 2, (4, 17) --> 1, (4, 18) --> 1, (4, 19) --> 2, (4, 20) --> 2, (4, 21) --> 1,
                 (4, 22) --> 1, (4, 23) --> 2, (4, 24) --> 2, (4, 25) --> 2, (4, 26) --> 2, (4, 27) --> 2,
                 (4, 28) --> 2, (4, 29) --> 1, (4, 30) --> 1, (4, 31) --> 1, (4, 32) --> 2, (4, 33) --> 2,
                 (4, 34) --> 1, (4, 35) --> 2, (4, 36) --> 2, (4, 37) --> 2, (4, 38) --> 1, (5, 1) --> 2, (5, 2) --> 1,
                 (5, 3) --> 2, (5, 4) --> 1, (5, 5) --> 1, (5, 6) --> 1, (5, 7) --> 1, (5, 8) --> 1, (5, 9) --> 1,
                 (5, 10) --> 1, (5, 11) --> 2, (5, 12) --> 2, (5, 13) --> 2, (5, 14) --> 2, (5, 15) --> 1,
                 (5, 16) --> 2, (5, 17) --> 2, (5, 18) --> 2, (5, 19) --> 1, (5, 20) --> 1, (5, 21) --> 1,
                 (5, 22) --> 2, (5, 23) --> 2, (5, 24) --> 2, (5, 25) --> 1, (5, 26) --> 1, (5, 27) --> 1,
                 (5, 28) --> 1, (5, 29) --> 1, (5, 30) --> 1, (5, 31) --> 1, (5, 32) --> 2, (5, 33) --> 2,
                 (5, 34) --> 1, (5, 35) --> 2, (5, 36) --> 2, (5, 37) --> 2, (5, 38) --> 2, (6, 1) --> 2, (6, 2) --> 2,
                 (6, 3) --> 2, (6, 4) --> 2, (6, 5) --> 1, (6, 6) --> 2, (6, 7) --> 2, (6, 8) --> 2, (6, 9) --> 1,
                 (6, 10) --> 1, (6, 11) --> 2, (6, 12) --> 1, (6, 13) --> 2, (6, 14) --> 1, (6, 15) --> 2,
                 (6, 16) --> 1, (6, 17) --> 2, (6, 18) --> 1, (6, 19) --> 2, (6, 20) --> 1, (6, 21) --> 1,
                 (6, 22) --> 2, (6, 23) --> 1, (6, 24) --> 2, (6, 25) --> 2, (6, 26) --> 1, (6, 27) --> 2,
                 (6, 28) --> 2, (6, 29) --> 1, (6, 30) --> 2, (6, 31) --> 1, (6, 32) --> 1, (6, 33) --> 1,
                 (6, 34) --> 2, (6, 35) --> 2, (6, 36) --> 2, (6, 37) --> 1, (6, 38) --> 2, (7, 1) --> 2, (7, 2) --> 1,
                 (7, 3) --> 1, (7, 4) --> 1, (7, 5) --> 1, (7, 6) --> 2, (7, 7) --> 1, (7, 8) --> 1, (7, 9) --> 1,
                 (7, 10) --> 2, (7, 11) --> 1, (7, 12) --> 1, (7, 13) --> 1, (7, 14) --> 2, (7, 15) --> 1,
                 (7, 16) --> 1, (7, 17) --> 2, (7, 18) --> 2, (7, 19) --> 1, (7, 20) --> 2, (7, 21) --> 1,
                 (7, 22) --> 2, (7, 23) --> 2, (7, 24) --> 2, (7, 25) --> 2, (7, 26) --> 2, (7, 27) --> 2,
                 (7, 28) --> 1, (7, 29) --> 2, (7, 30) --> 1, (7, 31) --> 2, (7, 32) --> 1, (7, 33) --> 2,
                 (7, 34) --> 2, (7, 35) --> 1, (7, 36) --> 1, (7, 37) --> 2, (7, 38) --> 1, (8, 1) --> 2, (8, 2) --> 1,
                 (8, 3) --> 2, (8, 4) --> 2, (8, 5) --> 1, (8, 6) --> 2, (8, 7) --> 2, (8, 8) --> 1, (8, 9) --> 2,
                 (8, 10) --> 1, (8, 11) --> 1, (8, 12) --> 2, (8, 13) --> 1, (8, 14) --> 1, (8, 15) --> 2,
                 (8, 16) --> 2, (8, 17) --> 1, (8, 18) --> 1, (8, 19) --> 2, (8, 20) --> 2, (8, 21) --> 2,
                 (8, 22) --> 2, (8, 23) --> 2, (8, 24) --> 1, (8, 25) --> 1, (8, 26) --> 1, (8, 27) --> 1,
                 (8, 28) --> 2, (8, 29) --> 2, (8, 30) --> 1, (8, 31) --> 2, (8, 32) --> 1, (8, 33) --> 2,
                 (8, 34) --> 1, (8, 35) --> 2, (8, 36) --> 1, (8, 37) --> 2, (8, 38) --> 2, (9, 1) --> 2, (9, 2) --> 2,
                 (9, 3) --> 2, (9, 4) --> 1, (9, 5) --> 1, (9, 6) --> 2, (9, 7) --> 1, (9, 8) --> 1, (9, 9) --> 2,
                 (9, 10) --> 2, (9, 11) --> 2, (9, 12) --> 1, (9, 13) --> 2, (9, 14) --> 1, (9, 15) --> 2,
                 (9, 16) --> 1, (9, 17) --> 2, (9, 18) --> 2, (9, 19) --> 2, (9, 20) --> 2, (9, 21) --> 2,
                 (9, 22) --> 1, (9, 23) --> 2, (9, 24) --> 2, (9, 25) --> 2, (9, 26) --> 2, (9, 27) --> 2,
                 (9, 28) --> 2, (9, 29) --> 2, (9, 30) --> 1, (9, 31) --> 2, (9, 32) --> 2, (9, 33) --> 1,
                 (9, 34) --> 1, (9, 35) --> 2, (9, 36) --> 2, (9, 37) --> 1, (9, 38) --> 1, (10, 1) --> 1,
                 (10, 2) --> 1, (10, 3) --> 2, (10, 4) --> 2, (10, 5) --> 2, (10, 6) --> 2, (10, 7) --> 2,
                 (10, 8) --> 1, (10, 9) --> 2, (10, 10) --> 2, (10, 11) --> 2, (10, 12) --> 2, (10, 13) --> 2,
                 (10, 14) --> 2, (10, 15) --> 1, (10, 16) --> 2, (10, 17) --> 2, (10, 18) --> 2, (10, 19) --> 2,
                 (10, 20) --> 2, (10, 21) --> 1, (10, 22) --> 1, (10, 23) --> 1, (10, 24) --> 2, (10, 25) --> 2,
                 (10, 26) --> 1, (10, 27) --> 1, (10, 28) --> 1, (10, 29) --> 1, (10, 30) --> 1, (10, 31) --> 2,
                 (10, 32) --> 1, (10, 33) --> 2, (10, 34) --> 2, (10, 35) --> 1, (10, 36) --> 1, (10, 37) --> 2,
                 (10, 38) --> 2, (11, 1) --> 1, (11, 2) --> 1, (11, 3) --> 1, (11, 4) --> 1, (11, 5) --> 1,
                 (11, 6) --> 1, (11, 7) --> 2, (11, 8) --> 1, (11, 9) --> 2, (11, 10) --> 2, (11, 11) --> 2,
                 (11, 12) --> 1, (11, 13) --> 2, (11, 14) --> 1, (11, 15) --> 1, (11, 16) --> 2, (11, 17) --> 1,
                 (11, 18) --> 2, (11, 19) --> 1, (11, 20) --> 2, (11, 21) --> 2, (11, 22) --> 2, (11, 23) --> 1,
                 (11, 24) --> 2, (11, 25) --> 1, (11, 26) --> 2, (11, 27) --> 1, (11, 28) --> 2, (11, 29) --> 1,
                 (11, 30) --> 1, (11, 31) --> 1, (11, 32) --> 1, (11, 33) --> 1, (11, 34) --> 2, (11, 35) --> 1,
                 (11, 36) --> 2, (11, 37) --> 1, (11, 38) --> 1, (12, 1) --> 2, (12, 2) --> 1, (12, 3) --> 2,
                 (12, 4) --> 2, (12, 5) --> 2, (12, 6) --> 2, (12, 7) --> 1, (12, 8) --> 2, (12, 9) --> 1,
                 (12, 10) --> 2, (12, 11) --> 2, (12, 12) --> 2, (12, 13) --> 2, (12, 14) --> 2, (12, 15) --> 1,
                 (12, 16) --> 2, (12, 17) --> 2, (12, 18) --> 2, (12, 19) --> 1, (12, 20) --> 1, (12, 21) --> 2,
                 (12, 22) --> 2, (12, 23) --> 1, (12, 24) --> 1, (12, 25) --> 1, (12, 26) --> 1, (12, 27) --> 2,
                 (12, 28) --> 1, (12, 29) --> 2, (12, 30) --> 2, (12, 31) --> 1, (12, 32) --> 2, (12, 33) --> 2,
                 (12, 34) --> 2, (12, 35) --> 1, (12, 36) --> 2, (12, 37) --> 2, (12, 38) --> 1, (13, 1) --> 1,
                 (13, 2) --> 2, (13, 3) --> 2, (13, 4) --> 2, (13, 5) --> 1, (13, 6) --> 1, (13, 7) --> 1,
                 (13, 8) --> 1, (13, 9) --> 2, (13, 10) --> 2, (13, 11) --> 1, (13, 12) --> 1, (13, 13) --> 1,
                 (13, 14) --> 1, (13, 15) --> 2, (13, 16) --> 2, (13, 17) --> 1, (13, 18) --> 1, (13, 19) --> 1,
                 (13, 20) --> 2, (13, 21) --> 1, (13, 22) --> 2, (13, 23) --> 1, (13, 24) --> 2, (13, 25) --> 2,
                 (13, 26) --> 1, (13, 27) --> 1, (13, 28) --> 1, (13, 29) --> 1, (13, 30) --> 2, (13, 31) --> 2,
                 (13, 32) --> 1, (13, 33) --> 2, (13, 34) --> 2, (13, 35) --> 2, (13, 36) --> 2, (13, 37) --> 1,
                 (13, 38) --> 2)
letting demand be function(1 --> 43, 2 --> 43, 3 --> 43, 4 --> 43, 5 --> 43, 6 --> 43)
letting maxCost be 39
letting n_customer be 6
letting n_transshipment be 38
letting n_warehouses be 13
letting stock be
        function(1 --> 31, 2 --> 31, 3 --> 31, 4 --> 31, 5 --> 31, 6 --> 31, 7 --> 31, 8 --> 31, 9 --> 31, 10 --> 31,
                 11 --> 31, 12 --> 31, 13 --> 31)
